certificates/rado_a13_c22_N53.cnf
c Rad2 upper bound instance: x1 + 13*x2 - x3 = 22, interval [1,53]
p cnf 53 324
1 2 5 0
-1 -2 -5 0
1 3 18 0
-1 -3 -18 0
1 4 31 0
-1 -4 -31 0
1 5 44 0
-1 -5 -44 0
2 6 0
-2 -6 0
2 3 19 0
-2 -3 -19 0
2 4 32 0
-2 -4 -32 0
2 5 45 0
-2 -5 -45 0
2 3 7 0
-2 -3 -7 0
3 20 0
-3 -20 0
3 4 33 0
-3 -4 -33 0
3 5 46 0
-3 -5 -46 0
2 4 8 0
-2 -4 -8 0
3 4 21 0
-3 -4 -21 0
4 34 0
-4 -34 0
4 5 47 0
-4 -5 -47 0
2 5 9 0
-2 -5 -9 0
3 5 22 0
-3 -5 -22 0
4 5 35 0
-4 -5 -35 0
5 48 0
-5 -48 0
2 6 10 0
-2 -6 -10 0
3 6 23 0
-3 -6 -23 0
4 6 36 0
-4 -6 -36 0
5 6 49 0
-5 -6 -49 0
2 7 11 0
-2 -7 -11 0
3 7 24 0
-3 -7 -24 0
4 7 37 0
-4 -7 -37 0
5 7 50 0
-5 -7 -50 0
2 8 12 0
-2 -8 -12 0
3 8 25 0
-3 -8 -25 0
4 8 38 0
-4 -8 -38 0
5 8 51 0
-5 -8 -51 0
2 9 13 0
-2 -9 -13 0
3 9 26 0
-3 -9 -26 0
4 9 39 0
-4 -9 -39 0
5 9 52 0
-5 -9 -52 0
1 10 0
-1 -10 0
2 10 14 0
-2 -10 -14 0
3 10 27 0
-3 -10 -27 0
4 10 40 0
-4 -10 -40 0
5 10 53 0
-5 -10 -53 0
1 2 11 0
-1 -2 -11 0
2 11 15 0
-2 -11 -15 0
3 11 28 0
-3 -11 -28 0
4 11 41 0
-4 -11 -41 0
1 3 12 0
-1 -3 -12 0
2 12 16 0
-2 -12 -16 0
3 12 29 0
-3 -12 -29 0
4 12 42 0
-4 -12 -42 0
1 4 13 0
-1 -4 -13 0
2 13 17 0
-2 -13 -17 0
3 13 30 0
-3 -13 -30 0
4 13 43 0
-4 -13 -43 0
1 5 14 0
-1 -5 -14 0
2 14 18 0
-2 -14 -18 0
3 14 31 0
-3 -14 -31 0
4 14 44 0
-4 -14 -44 0
1 6 15 0
-1 -6 -15 0
2 15 19 0
-2 -15 -19 0
3 15 32 0
-3 -15 -32 0
4 15 45 0
-4 -15 -45 0
1 7 16 0
-1 -7 -16 0
2 16 20 0
-2 -16 -20 0
3 16 33 0
-3 -16 -33 0
4 16 46 0
-4 -16 -46 0
1 8 17 0
-1 -8 -17 0
2 17 21 0
-2 -17 -21 0
3 17 34 0
-3 -17 -34 0
4 17 47 0
-4 -17 -47 0
1 9 18 0
-1 -9 -18 0
2 18 22 0
-2 -18 -22 0
3 18 35 0
-3 -18 -35 0
4 18 48 0
-4 -18 -48 0
1 10 19 0
-1 -10 -19 0
2 19 23 0
-2 -19 -23 0
3 19 36 0
-3 -19 -36 0
4 19 49 0
-4 -19 -49 0
1 11 20 0
-1 -11 -20 0
2 20 24 0
-2 -20 -24 0
3 20 37 0
-3 -20 -37 0
4 20 50 0
-4 -20 -50 0
1 12 21 0
-1 -12 -21 0
2 21 25 0
-2 -21 -25 0
3 21 38 0
-3 -21 -38 0
4 21 51 0
-4 -21 -51 0
1 13 22 0
-1 -13 -22 0
2 22 26 0
-2 -22 -26 0
3 22 39 0
-3 -22 -39 0
4 22 52 0
-4 -22 -52 0
1 14 23 0
-1 -14 -23 0
2 23 27 0
-2 -23 -27 0
3 23 40 0
-3 -23 -40 0
4 23 53 0
-4 -23 -53 0
1 15 24 0
-1 -15 -24 0
2 24 28 0
-2 -24 -28 0
3 24 41 0
-3 -24 -41 0
1 16 25 0
-1 -16 -25 0
2 25 29 0
-2 -25 -29 0
3 25 42 0
-3 -25 -42 0
1 17 26 0
-1 -17 -26 0
2 26 30 0
-2 -26 -30 0
3 26 43 0
-3 -26 -43 0
1 18 27 0
-1 -18 -27 0
2 27 31 0
-2 -27 -31 0
3 27 44 0
-3 -27 -44 0
1 19 28 0
-1 -19 -28 0
2 28 32 0
-2 -28 -32 0
3 28 45 0
-3 -28 -45 0
1 20 29 0
-1 -20 -29 0
2 29 33 0
-2 -29 -33 0
3 29 46 0
-3 -29 -46 0
1 21 30 0
-1 -21 -30 0
2 30 34 0
-2 -30 -34 0
3 30 47 0
-3 -30 -47 0
1 22 31 0
-1 -22 -31 0
2 31 35 0
-2 -31 -35 0
3 31 48 0
-3 -31 -48 0
1 23 32 0
-1 -23 -32 0
2 32 36 0
-2 -32 -36 0
3 32 49 0
-3 -32 -49 0
1 24 33 0
-1 -24 -33 0
2 33 37 0
-2 -33 -37 0
3 33 50 0
-3 -33 -50 0
1 25 34 0
-1 -25 -34 0
2 34 38 0
-2 -34 -38 0
3 34 51 0
-3 -34 -51 0
1 26 35 0
-1 -26 -35 0
2 35 39 0
-2 -35 -39 0
3 35 52 0
-3 -35 -52 0
1 27 36 0
-1 -27 -36 0
2 36 40 0
-2 -36 -40 0
3 36 53 0
-3 -36 -53 0
1 28 37 0
-1 -28 -37 0
2 37 41 0
-2 -37 -41 0
1 29 38 0
-1 -29 -38 0
2 38 42 0
-2 -38 -42 0
1 30 39 0
-1 -30 -39 0
2 39 43 0
-2 -39 -43 0
1 31 40 0
-1 -31 -40 0
2 40 44 0
-2 -40 -44 0
1 32 41 0
-1 -32 -41 0
2 41 45 0
-2 -41 -45 0
1 33 42 0
-1 -33 -42 0
2 42 46 0
-2 -42 -46 0
1 34 43 0
-1 -34 -43 0
2 43 47 0
-2 -43 -47 0
1 35 44 0
-1 -35 -44 0
2 44 48 0
-2 -44 -48 0
1 36 45 0
-1 -36 -45 0
2 45 49 0
-2 -45 -49 0
1 37 46 0
-1 -37 -46 0
2 46 50 0
-2 -46 -50 0
1 38 47 0
-1 -38 -47 0
2 47 51 0
-2 -47 -51 0
1 39 48 0
-1 -39 -48 0
2 48 52 0
-2 -48 -52 0
1 40 49 0
-1 -40 -49 0
2 49 53 0
-2 -49 -53 0
1 41 50 0
-1 -41 -50 0
1 42 51 0
-1 -42 -51 0
1 43 52 0
-1 -43 -52 0
1 44 53 0
-1 -44 -53 0
