certificates/rado_a13_c22_N53.drat
-49 -53 0
d -49 -2 -53 0
-2 -45 49 0
40 2 -53 0
1 2 -53 0
2 -52 -53 0
-2 -53 0
-53 0
49 0
1 -2 0
-2 0
6 0
-5 0
45 0
9 0
48 0
10 0
1 0
-18 0
-39 0
0
